m=7;
n=8;
maxtime=10;
boxNumber = 3;
drawerNumber = 3;
constraint boxes[1, 0, 0] = 3 /\ boxes[1, 0, 1] = 2;
constraint boxes[2, 0, 0] = 6 /\ boxes[2, 0, 1] = 2;
constraint boxes[3, 0, 0] = 5 /\ boxes[3, 0, 1] = 7;
drawers = array2d(1..drawerNumber, 0..1, [|5,4|0,3|2,3|]);
